22      4       
8       17      15      13      
0       0       0       0       0       4       2       3       4       5       
8       2       7       10      3       3       6       9       10      
2       0       0       0       9       2       7       11      
6       0       8       7       2       3       8       12      21      
8       4       2       3       2       3       6       8       10      
10      0       4       1       0       1       11      
1       8       4       1       0       3       8       10      21      
10      0       4       2       1       2       9       14      
8       1       6       3       4       2       15      16      
4       0       1       6       0       1       12      
3       7       0       0       1       2       12      13      
10      0       8       4       2       1       14      
5       0       10      6       0       3       15      16      21      
9       1       5       6       3       2       15      16      
1       3       6       1       8       2       18      20      
2       4       10      6       3       1       17      
9       6       2       2       3       2       18      20      
4       0       0       1       0       1       19      
4       7       0       1       1       1       22      
6       8       8       7       4       1       22      
1       3       3       0       9       1       22      
0       0       0       0       0       0       
